; PUSH cw_1 SLOAD SWAP1 SWAP2 POP => SWAP1 POP PUSH cw_1 SLOAD
(set-option :produce-proofs true)
; 
(set-info :status unknown)
(declare-fun storage_t ((_ BitVec 256) (_ BitVec 256) (_ BitVec 256) (_ BitVec 256) Int (_ BitVec 256)) (_ BitVec 256))
(declare-fun w_1 () (_ BitVec 256))
(declare-fun storage_s ((_ BitVec 256) (_ BitVec 256) (_ BitVec 256) (_ BitVec 256) Int (_ BitVec 256)) (_ BitVec 256))
(declare-fun exc_halt_t (Int) Bool)
(declare-fun exc_halt_s (Int) Bool)
(declare-fun stack_t ((_ BitVec 256) (_ BitVec 256) (_ BitVec 256) (_ BitVec 256) Int (_ BitVec 6)) (_ BitVec 256))
(declare-fun stack_s ((_ BitVec 256) (_ BitVec 256) (_ BitVec 256) (_ BitVec 256) Int (_ BitVec 6)) (_ BitVec 256))
(declare-fun sc_t (Int) (_ BitVec 6))
(declare-fun sc_s (Int) (_ BitVec 6))
(declare-fun used_gas_t ((_ BitVec 256) (_ BitVec 256) (_ BitVec 256) (_ BitVec 256) Int) Int)
(declare-fun used_gas_s ((_ BitVec 256) (_ BitVec 256) (_ BitVec 256) (_ BitVec 256) Int) Int)
(assert
 (exists ((x_0 (_ BitVec 256)) (x_1 (_ BitVec 256)) (x_SLOAD_0 (_ BitVec 256)) )(let (($x3686 (forall ((w (_ BitVec 256)) )(let ((?x5167 (storage_t x_0 x_1 x_SLOAD_0 w_1 4 w)))
 (let ((?x9894 (storage_s x_0 x_1 x_SLOAD_0 w_1 5 w)))
 (= ?x9894 ?x5167))))
 ))
 (let (($x7854 (exc_halt_t 4)))
 (let (($x1862 (exc_halt_s 5)))
 (let (($x1994 (= $x1862 $x7854)))
 (let (($x872 (forall ((n (_ BitVec 6)) )(let ((?x10720 (stack_t x_0 x_1 x_SLOAD_0 w_1 4 n)))
 (let ((?x821 (stack_s x_0 x_1 x_SLOAD_0 w_1 5 n)))
 (let (($x1113 (= ?x821 ?x10720)))
 (let ((?x7495 (sc_t 4)))
 (let (($x1022 (bvsle ?x7495 n)))
 (or $x1022 $x1113)))))))
 ))
 (let ((?x7495 (sc_t 4)))
 (let ((?x4319 (sc_s 5)))
 (let (($x3074 (= ?x4319 ?x7495)))
 (let ((?x6404 (used_gas_t x_0 x_1 x_SLOAD_0 w_1 0)))
 (let ((?x11708 (used_gas_s x_0 x_1 x_SLOAD_0 w_1 0)))
 (let (($x11881 (= ?x11708 ?x6404)))
 (let (($x9907 (forall ((w (_ BitVec 256)) )(let ((?x8620 (storage_t x_0 x_1 x_SLOAD_0 w_1 0 w)))
 (let ((?x10116 (storage_s x_0 x_1 x_SLOAD_0 w_1 0 w)))
 (= ?x10116 ?x8620))))
 ))
 (let (($x56 (exc_halt_t 0)))
 (let (($x57 (exc_halt_s 0)))
 (let (($x58 (= $x57 $x56)))
 (let (($x9309 (forall ((n (_ BitVec 6)) )(let ((?x3646 (stack_t x_0 x_1 x_SLOAD_0 w_1 0 n)))
 (let ((?x9646 (stack_s x_0 x_1 x_SLOAD_0 w_1 0 n)))
 (let (($x7307 (= ?x9646 ?x3646)))
 (let ((?x63 (sc_t 0)))
 (let (($x4370 (bvsle ?x63 n)))
 (or $x4370 $x7307)))))))
 ))
 (let ((?x63 (sc_t 0)))
 (let ((?x72 (sc_s 0)))
 (let (($x73 (= ?x72 ?x63)))
 (let (($x40 (= $x7854 (or (exc_halt_t 3) (not (bvsle (_ bv0 6) (bvadd (_ bv63 6) (sc_t 3))))))))
 (let (($x4998 (forall ((w (_ BitVec 256)) )(let ((?x3322 (storage_t x_0 x_1 x_SLOAD_0 w_1 3 w)))
 (let ((?x5167 (storage_t x_0 x_1 x_SLOAD_0 w_1 4 w)))
 (= ?x5167 ?x3322))))
 ))
 (let (($x10173 (forall ((n (_ BitVec 6)) )(let ((?x10013 (sc_t 3)))
 (let ((?x3835 (bvadd (_ bv63 6) ?x10013)))
 (let (($x3223 (bvsle ?x3835 n)))
 (let ((?x830 (stack_t x_0 x_1 x_SLOAD_0 w_1 3 n)))
 (let ((?x10720 (stack_t x_0 x_1 x_SLOAD_0 w_1 4 n)))
 (or (= ?x10720 ?x830) $x3223)))))))
 ))
 (let (($x9017 (= (used_gas_t x_0 x_1 x_SLOAD_0 w_1 4) (+ 200 (used_gas_t x_0 x_1 x_SLOAD_0 w_1 3)))))
 (let ((?x1871 (storage_t x_0 x_1 x_SLOAD_0 w_1 3 (stack_t x_0 x_1 x_SLOAD_0 w_1 3 (bvadd (_ bv63 6) (sc_t 3))))))
 (let (($x6733 (exc_halt_t 2)))
 (let (($x7050 (or $x6733 (not (= ((_ extract 6 6) (bvadd (_ bv1 7) (concat (_ bv0 1) (sc_t 2)))) (_ bv0 1))))))
 (let (($x9131 (exc_halt_t 3)))
 (let (($x5272 (forall ((w (_ BitVec 256)) )(let ((?x9000 (storage_t x_0 x_1 x_SLOAD_0 w_1 2 w)))
 (let ((?x3322 (storage_t x_0 x_1 x_SLOAD_0 w_1 3 w)))
 (= ?x3322 ?x9000))))
 ))
 (let (($x463 (forall ((n (_ BitVec 6)) )(let ((?x10477 (stack_t x_0 x_1 x_SLOAD_0 w_1 2 n)))
 (let ((?x830 (stack_t x_0 x_1 x_SLOAD_0 w_1 3 n)))
 (or (= ?x830 ?x10477) (bvsle (sc_t 2) n)))))
 ))
 (let ((?x2480 (used_gas_t x_0 x_1 x_SLOAD_0 w_1 3)))
 (let (($x6256 (= $x6733 (or (exc_halt_t 1) (not (bvsle (_ bv0 6) (bvadd (_ bv63 6) (sc_t 1))))))))
 (let (($x2096 (forall ((w (_ BitVec 256)) )(let ((?x10245 (storage_t x_0 x_1 x_SLOAD_0 w_1 1 w)))
 (let ((?x9000 (storage_t x_0 x_1 x_SLOAD_0 w_1 2 w)))
 (= ?x9000 ?x10245))))
 ))
 (let (($x10682 (forall ((n (_ BitVec 6)) )(let ((?x10217 (stack_t x_0 x_1 x_SLOAD_0 w_1 1 n)))
 (let ((?x10477 (stack_t x_0 x_1 x_SLOAD_0 w_1 2 n)))
 (or (= ?x10477 ?x10217) (bvsle (bvadd (_ bv63 6) (sc_t 1)) n)))))
 ))
 (let ((?x3095 (used_gas_t x_0 x_1 x_SLOAD_0 w_1 2)))
 (let (($x10029 (forall ((w (_ BitVec 256)) )(let ((?x8620 (storage_t x_0 x_1 x_SLOAD_0 w_1 0 w)))
 (let ((?x10245 (storage_t x_0 x_1 x_SLOAD_0 w_1 1 w)))
 (= ?x10245 ?x8620))))
 ))
 (let (($x149 (forall ((n (_ BitVec 6)) )(let ((?x3646 (stack_t x_0 x_1 x_SLOAD_0 w_1 0 n)))
 (let ((?x10217 (stack_t x_0 x_1 x_SLOAD_0 w_1 1 n)))
 (or (bvsle (bvadd (_ bv62 6) (sc_t 0)) n) (= ?x10217 ?x3646)))))
 ))
 (let (($x9941 (= (stack_t x_0 x_1 x_SLOAD_0 w_1 1 (bvadd (_ bv62 6) (sc_t 1))) (stack_t x_0 x_1 x_SLOAD_0 w_1 0 (bvadd (_ bv63 6) ?x63)))))
 (let (($x5017 (= (stack_t x_0 x_1 x_SLOAD_0 w_1 1 (bvadd (_ bv63 6) (sc_t 1))) (stack_t x_0 x_1 x_SLOAD_0 w_1 0 (bvadd (_ bv62 6) ?x63)))))
 (let (($x8895 (= $x1862 (or (exc_halt_s 4) (not (bvsle (_ bv0 6) (bvadd (_ bv63 6) (sc_s 4))))))))
 (let (($x4981 (forall ((w (_ BitVec 256)) )(let ((?x423 (storage_s x_0 x_1 x_SLOAD_0 w_1 4 w)))
 (let ((?x9894 (storage_s x_0 x_1 x_SLOAD_0 w_1 5 w)))
 (= ?x9894 ?x423))))
 ))
 (let (($x2094 (forall ((n (_ BitVec 6)) )(let ((?x6241 (stack_s x_0 x_1 x_SLOAD_0 w_1 4 n)))
 (let ((?x821 (stack_s x_0 x_1 x_SLOAD_0 w_1 5 n)))
 (or (= ?x821 ?x6241) (bvsle (bvadd (_ bv63 6) (sc_s 4)) n)))))
 ))
 (let (($x945 (= (used_gas_s x_0 x_1 x_SLOAD_0 w_1 5) (+ 2 (used_gas_s x_0 x_1 x_SLOAD_0 w_1 4)))))
 (let (($x9175 (exc_halt_s 4)))
 (let (($x5157 (= $x9175 (or (exc_halt_s 3) (not (bvsle (_ bv0 6) (bvadd (_ bv61 6) (sc_s 3))))))))
 (let (($x5613 (forall ((w (_ BitVec 256)) )(let ((?x11498 (storage_s x_0 x_1 x_SLOAD_0 w_1 3 w)))
 (let ((?x423 (storage_s x_0 x_1 x_SLOAD_0 w_1 4 w)))
 (= ?x423 ?x11498))))
 ))
 (let (($x8711 (forall ((n (_ BitVec 6)) )(let ((?x9372 (stack_s x_0 x_1 x_SLOAD_0 w_1 3 n)))
 (let ((?x6241 (stack_s x_0 x_1 x_SLOAD_0 w_1 4 n)))
 (or (bvsle (bvadd (_ bv61 6) (sc_s 3)) n) (= ?x6241 ?x9372)))))
 ))
 (let ((?x3980 (used_gas_s x_0 x_1 x_SLOAD_0 w_1 4)))
 (let ((?x3573 (stack_s x_0 x_1 x_SLOAD_0 w_1 3 (bvadd (_ bv62 6) (sc_s 3)))))
 (let (($x10584 (= (stack_s x_0 x_1 x_SLOAD_0 w_1 4 (bvadd (_ bv62 6) (sc_s 4))) ?x3573)))
 (let ((?x3851 (sc_s 3)))
 (let ((?x9751 (bvadd (_ bv63 6) ?x3851)))
 (let ((?x7740 (stack_s x_0 x_1 x_SLOAD_0 w_1 3 ?x9751)))
 (let (($x5004 (= (stack_s x_0 x_1 x_SLOAD_0 w_1 4 (bvadd (_ bv61 6) (sc_s 4))) ?x7740)))
 (let (($x587 (= (stack_s x_0 x_1 x_SLOAD_0 w_1 4 (bvadd (_ bv63 6) (sc_s 4))) (stack_s x_0 x_1 x_SLOAD_0 w_1 3 (bvadd (_ bv61 6) ?x3851)))))
 (let (($x8103 (exc_halt_s 3)))
 (let (($x9505 (= $x8103 (or (exc_halt_s 2) (not (bvsle (_ bv0 6) (bvadd (_ bv62 6) (sc_s 2))))))))
 (let (($x6503 (forall ((w (_ BitVec 256)) )(let ((?x4177 (storage_s x_0 x_1 x_SLOAD_0 w_1 2 w)))
 (let ((?x11498 (storage_s x_0 x_1 x_SLOAD_0 w_1 3 w)))
 (= ?x11498 ?x4177))))
 ))
 (let (($x6237 (forall ((n (_ BitVec 6)) )(let ((?x9716 (stack_s x_0 x_1 x_SLOAD_0 w_1 2 n)))
 (let ((?x9372 (stack_s x_0 x_1 x_SLOAD_0 w_1 3 n)))
 (or (bvsle (bvadd (_ bv62 6) (sc_s 2)) n) (= ?x9372 ?x9716)))))
 ))
 (let ((?x2272 (sc_s 2)))
 (let (($x863 (= ?x3851 ?x2272)))
 (let ((?x11402 (used_gas_s x_0 x_1 x_SLOAD_0 w_1 3)))
 (let (($x10052 (exc_halt_s 2)))
 (let (($x7255 (= $x10052 (or (exc_halt_s 1) (not (bvsle (_ bv0 6) (bvadd (_ bv63 6) (sc_s 1))))))))
 (let (($x3804 (forall ((w (_ BitVec 256)) )(let ((?x2398 (storage_s x_0 x_1 x_SLOAD_0 w_1 1 w)))
 (let ((?x4177 (storage_s x_0 x_1 x_SLOAD_0 w_1 2 w)))
 (= ?x4177 ?x2398))))
 ))
 (let (($x314 (forall ((n (_ BitVec 6)) )(let ((?x10335 (stack_s x_0 x_1 x_SLOAD_0 w_1 1 n)))
 (let ((?x9716 (stack_s x_0 x_1 x_SLOAD_0 w_1 2 n)))
 (or (bvsle (bvadd (_ bv63 6) (sc_s 1)) n) (= ?x9716 ?x10335)))))
 ))
 (let ((?x1321 (used_gas_s x_0 x_1 x_SLOAD_0 w_1 2)))
 (let ((?x2388 (storage_s x_0 x_1 x_SLOAD_0 w_1 1 (stack_s x_0 x_1 x_SLOAD_0 w_1 1 (bvadd (_ bv63 6) (sc_s 1))))))
 (let ((?x5283 (bvadd (_ bv63 6) ?x2272)))
 (let ((?x537 (stack_s x_0 x_1 x_SLOAD_0 w_1 2 ?x5283)))
 (let (($x8780 (exc_halt_s 1)))
 (let (($x1308 (= $x8780 (or $x57 (not (= ((_ extract 6 6) (bvadd (_ bv1 7) (concat (_ bv0 1) ?x72))) (_ bv0 1)))))))
 (let (($x9863 (forall ((w (_ BitVec 256)) )(let ((?x10116 (storage_s x_0 x_1 x_SLOAD_0 w_1 0 w)))
 (let ((?x2398 (storage_s x_0 x_1 x_SLOAD_0 w_1 1 w)))
 (= ?x2398 ?x10116))))
 ))
 (let (($x8730 (forall ((n (_ BitVec 6)) )(let ((?x72 (sc_s 0)))
 (let (($x10283 (bvsle ?x72 n)))
 (let ((?x9646 (stack_s x_0 x_1 x_SLOAD_0 w_1 0 n)))
 (let ((?x10335 (stack_s x_0 x_1 x_SLOAD_0 w_1 1 n)))
 (or (= ?x10335 ?x9646) $x10283))))))
 ))
 (let ((?x154 (sc_s 1)))
 (let (($x8172 (= ?x154 (bvadd (_ bv1 6) ?x72))))
 (let (($x10512 (forall ((w (_ BitVec 256)) )(let (($x9972 (= w (stack_s x_0 x_1 x_SLOAD_0 w_1 1 (bvadd (_ bv63 6) (sc_s 1))))))
 (let ((?x10116 (storage_s x_0 x_1 x_SLOAD_0 w_1 0 w)))
 (= ?x10116 (ite $x9972 x_SLOAD_0 (_ bv0 256))))))
 ))
 (let (($x11779 (= ?x11708 0)))
 (let (($x2248 (not $x57)))
 (let (($x8294 (= (stack_s x_0 x_1 x_SLOAD_0 w_1 0 (_ bv1 6)) x_1)))
 (let (($x8672 (= (stack_s x_0 x_1 x_SLOAD_0 w_1 0 (_ bv0 6)) x_0)))
 (let (($x11128 (= ?x72 (_ bv2 6))))
 (and $x11128 $x8672 $x8294 $x2248 $x11779 $x10512 (= (stack_s x_0 x_1 x_SLOAD_0 w_1 1 ?x72) w_1) (= (used_gas_s x_0 x_1 x_SLOAD_0 w_1 1) (+ 3 ?x11708)) $x8172 $x8730 $x9863 $x1308 (= ?x537 ?x2388) (= ?x1321 (+ 200 (used_gas_s x_0 x_1 x_SLOAD_0 w_1 1))) (= ?x2272 ?x154) $x314 $x3804 $x7255 (= ?x7740 (stack_s x_0 x_1 x_SLOAD_0 w_1 2 (bvadd (_ bv62 6) ?x2272))) (= ?x3573 ?x537) (= ?x11402 (+ 3 ?x1321)) $x863 $x6237 $x6503 $x9505 $x587 $x5004 $x10584 (= ?x3980 (+ 3 ?x11402)) (= (sc_s 4) ?x3851) $x8711 $x5613 $x5157 $x945 (= ?x4319 (bvadd (_ bv63 6) (sc_s 4))) $x2094 $x4981 $x8895 $x5017 $x9941 (= (used_gas_t x_0 x_1 x_SLOAD_0 w_1 1) (+ 3 ?x6404)) (= (sc_t 1) ?x63) $x149 $x10029 (= (exc_halt_t 1) (or $x56 (not (bvsle (_ bv0 6) (bvadd (_ bv62 6) ?x63))))) (= ?x3095 (+ 2 (used_gas_t x_0 x_1 x_SLOAD_0 w_1 1))) (= (sc_t 2) (bvadd (_ bv63 6) (sc_t 1))) $x10682 $x2096 $x6256 (= (stack_t x_0 x_1 x_SLOAD_0 w_1 3 (sc_t 2)) w_1) (= ?x2480 (+ 3 ?x3095)) (= (sc_t 3) (bvadd (_ bv1 6) (sc_t 2))) $x463 $x5272 (= $x9131 $x7050) (= (stack_t x_0 x_1 x_SLOAD_0 w_1 4 (bvadd (_ bv63 6) ?x7495)) ?x1871) $x9017 (= ?x7495 (sc_t 3)) $x10173 $x4998 $x40 $x73 $x9309 $x58 $x9907 $x11881 (not (and $x3074 $x872 $x1994 $x3686)))))))))))))))))))))))))))))))))))))))))))))))))))))))))))))))))))))))))))))))))))))
 )
(check-sat)
(get-proof)
